BEGIN IONS
PEPMASS=981.54
CHARGE=1
TITLE=CCMSLIB00000001547
SPECTRUMID=CCMSLIB00000001547
COMPOUND_NAME=3-Des-Microcystein_LR
ADDUCT=[M+H]1+
ION_MODE=positive
SMILES=CC(C=CC1NC(=O)C(CCCN=C(N)N)NC(=O)C(C)C(C(=O)O)NC(=O)C(CC(C)C)=NC(=O)C(C)NC(=O)C(C)N(C)C(=O)CCC(C(=O)O)NC(=O)C1C)=CC(C)C(O)Cc1ccccc1
SCANS=1
MS_MASS_ANALYZER=qtof
MS_IONISATION=ESI
289.286377 8068.0
295.545288 22507.0
298.489624 3925.0
317.324951 18742.0
319.655945 8604.0
324.482422 8041.0
325.316284 9738.0
339.789429 16145.0
343.947021 18094.0
347.020508 13981.0
347.913391 6765.0
361.147705 11763.0
361.84436 24296.0
364.232727 2346.0
364.858154 10782.0
365.845886 10242.0
368.22168 12761.0
368.965698 19147.0
375.069519 15644.0
375.751953 25393.0
382.750549 12765.0
384.197083 17912.0
390.574219 7993.0
394.049194 16135.0
397.106262 13986.0
404.420715 12326.0
411.092712 2348.0
413.784546 8715.0
427.667358 68137.0
436.192749 14879.0
443.266113 44427.0
446.267273 23472.0
447.747498 29292.0
455.25 70939.0
456.107544 105392.0
456.822144 3.0
457.543213 12862.0
464.285461 8617.0
469.872314 87594.0
471.062195 31482.0
475.257324 15449.0
476.143616 23143.0
476.975159 28430.0
478.891113 27890.0
479.975952 33235.0
483.242432 13564.0
487.210388 32885.0
488.160156 20786.0
491.191956 55073.0
494.279602 7435.0
495.653992 32208.0
498.412964 11684.0
503.028198 30643.0
503.699951 2.0
504.344543 36421.0
505.154541 9667.0
510.176514 38891.0
512.168701 10175.0
513.265381 16524.0
514.957397 11384.0
515.922852 78764.0
520.973389 28857.0
521.82373 5810.0
523.168945 58926.0
529.036865 20722.0
530.991211 31845.0
532.376709 3005.0
534.575195 12906.0
538.003174 220949.0
539.217773 272296.0
540.672852 43876.0
548.061401 13655.0
554.117432 76225.0
556.030396 214421.0
557.288818 52970.0
557.996094 6202.0
559.942261 18112.0
561.328735 14656.0
564.123047 25971.0
564.94873 34630.0
566.439941 35564.0
571.33374 61305.0
572.047363 17235.0
575.219238 42127.0
575.888916 6.0
577.102905 29550.0
579.645874 7151.0
580.942627 17609.0
582.110107 102075.0
583.458984 10113.0
585.237061 36774.0
598.172485 26085.0
599.352783 764523.0
600.382812 114267.0
601.06665 4.0
602.267578 27144.0
609.302002 10247.0
613.415771 8621.0
622.208984 23787.0
623.023193 63940.0
623.991455 19154.0
625.216187 23050.0
638.299561 12481.0
640.265625 17392.0
641.235107 65873.0
646.095947 8409.0
649.2771 5446.0
651.526611 17521.0
657.128906 12911.0
658.094971 14824.0
659.420898 41969.0
663.387695 18284.0
668.33252 65700.0
669.357178 5671.0
680.219727 44374.0
681.987793 24446.0
685.957764 19166.0
691.648682 29177.0
693.22583 33545.0
694.307861 22539.0
696.332397 121211.0
697.127808 9503.0
709.464478 20171.0
710.79541 22346.0
711.744873 32675.0
714.071777 50487.0
715.578979 54567.0
716.216553 8.0
723.267822 14415.0
724.081909 88510.0
725.488892 8470.0
728.352051 21518.0
735.806396 52022.0
738.34668 2697.0
744.365234 16205.0
747.456055 19268.0
753.27124 14114.0
761.609131 12373.0
764.462158 19876.0
765.280029 18361.0
769.275635 41999.0
770.328613 16548.0
771.386353 13776.0
787.432617 33003.0
796.139526 9637.0
797.232788 11322.0
806.556885 18639.0
808.442383 6355.0
811.637329 14687.0
812.300049 9904.0
813.149292 15959.0
817.219238 7640.0
820.274048 6246.0
821.288208 15591.0
823.361328 13693.0
824.618286 6895.0
828.517456 32132.0
830.409302 102583.0
831.306763 65294.0
832.105469 9727.0
833.18457 4115.0
835.212891 7606.0
836.078247 8740.0
838.518677 26160.0
839.455811 72006.0
845.612915 21577.0
847.433594 196462.0
848.125854 39637.0
851.380859 246170.0
852.370605 276882.0
853.270508 44216.0
865.5979 44697.0
866.295654 111012.0
867.19043 4120.0
868.372192 78023.0
869.331177 8584.0
871.557007 5374.0
877.137451 30131.0
880.216553 5692.0
883.442261 49241.0
884.216553 8.0
888.167114 41037.0
889.282959 24795.0
892.127808 14925.0
893.467896 23506.0
895.607422 13123.0
899.010132 28633.0
901.351196 13472.0
902.325562 3774.0
909.424438 244136.0
910.515381 43770.0
911.526367 15208.0
914.30896 6532.0
915.217773 28455.0
918.666138 5610.0
919.39624 85829.0
920.06665 3.0
921.123901 16163.0
922.205688 37863.0
925.063721 43395.0
931.132812 61732.0
932.351929 136657.0
933.524048 25202.0
935.493286 33896.0
936.552002 103130.0
937.588623 67605.0
938.471069 35379.0
939.61792 77289.0
946.257812 38584.0
949.370239 85420.0
950.284546 5976.0
951.551758 29995.0
953.396606 545281.0
954.491577 123937.0
963.686768 261578.0
964.524658 318164.0
965.192139 124405.0
982.221924 27147.0
END IONS
BEGIN IONS
PEPMASS=940.25
CHARGE=1
TITLE=CCMSLIB00000001548
SPECTRUMID=CCMSLIB00000001548
COMPOUND_NAME=Hoiamide B
ADDUCT=[M+H]1+
ION_MODE=positive
SMILES=CCCC(C)C(O)C(C)C1OC(=O)C(C(C)O)NC(=O)C(C(C)CC)OC(=O)C(C)C(O)C(C(C)CC)NC(=O)C2(C)CSC(=N2)C2(C)CSC(=N2)c2csc(n2)CC(OC)C1C
SCANS=2
MS_MASS_ANALYZER=qtof
MS_IONISATION=ESI
278.049927 35793.0
278.957642 47593.0
281.258667 95495.0
291.996094 115278.0
293.827637 91752.0
299.065979 129040.0
309.152832 62974.0
324.236206 31157.0
334.968811 115627.0
341.283569 30547.0
343.978516 94124.0
353.147217 205611.0
353.84436 1.0
359.101166 581387.0
359.888855 18.0
368.931641 40369.0
375.024811 191523.0
375.664062 39.0
377.287628 934209.0
378.192047 295658.0
380.225586 99848.0
381.088074 28994.0
383.194763 126064.0
384.326294 119935.0
390.16333 132876.0
391.216492 152650.0
397.480957 49394.0
405.885986 15096.0
408.151367 50942.0
408.941162 1521917.0
410.069397 235028.0
412.908936 19523.0
415.317749 40832.0
416.189331 116396.0
421.346222 822444.0
422.236237 406319.0
425.736572 33271.0
430.427429 115251.0
431.030762 152986.0
436.663208 30867.0
453.213257 215667.0
453.853271 2.0
456.716797 125621.0
457.249573 718325.0
458.258514 121013.0
459.323029 42422.0
462.352295 53209.0
468.064392 56113.0
471.292297 101158.0
472.837769 17471.0
475.22522 1066899.0
476.323944 931888.0
477.293152 314415.0
481.310425 20995.0
486.095825 35999.0
488.752777 97793.0
490.151245 189397.0
491.134399 38134.0
492.823486 167781.0
493.837646 123040.0
499.340332 68929.0
500.92627 35192.0
502.819702 346672.0
503.328186 1789291.0
503.844055 115544.0
504.448425 209601.0
505.521667 210506.0
506.153992 23586.0
507.28186 1756109.0
508.139343 920658.0
508.715088 5.0
509.322998 67825.0
510.159729 125144.0
511.108826 44963.0
513.214233 63849.0
514.097351 157893.0
515.079712 76460.0
518.323853 32014.0
519.041016 240930.0
521.166443 2474045.0
522.086304 485376.0
522.963379 290176.0
529.374146 106411.0
530.899231 722904.0
532.089783 189952.0
532.834473 71377.0
534.093506 79577.0
535.231201 533187.0
536.079834 205958.0
536.935913 19616.0
537.806885 427771.0
538.545166 14.0
539.760132 185155.0
543.283936 115082.0
545.483398 53069.0
553.24353 10619710.0
554.189453 1265687.0
555.107849 885736.0
556.199341 35655.0
557.188904 144709.0
558.325073 276628.0
559.441162 38371.0
563.392944 369187.0
564.342773 53377.0
565.162598 153259.0
567.527832 90530.0
569.09668 13406.0
573.235718 244664.0
573.872803 48.0
575.213562 846336.0
576.479736 79230.0
582.099854 85856.0
583.982666 34163.0
584.817871 17642.0
585.449829 126403.0
587.480713 30454.0
589.125 202774.0
589.857056 3.0
591.335327 324628.0
593.54541 59873.0
599.153564 39495.0
601.312927 773465.0
602.344727 103997.0
605.229919 390697.0
606.044434 1.0
607.083252 438106.0
607.802979 32.0
611.162537 126605.0
613.219177 1278729.0
614.208252 134599.0
614.943481 32793.0
616.26123 35333.0
617.239929 1181920.0
617.832764 3566.0
619.109741 611095.0
620.09021 215720.0
623.606201 32893.0
625.371094 162473.0
629.113037 397263.0
631.285767 837261.0
632.427246 426749.0
633.305969 773961.0
634.005371 139725.0
635.159546 104212.0
638.429932 50215.0
639.142578 211014.0
640.06665 0.0
644.970947 126358.0
645.833496 400437.0
646.540649 13.0
647.614746 28622.0
649.493652 92063.0
651.267822 2952105.0
652.501709 948097.0
653.303345 261489.0
655.203003 33201.0
656.197632 63099.0
657.307983 3027254.0
658.356934 577368.0
659.635254 85949.0
661.488525 480492.0
662.373413 76094.0
663.271667 5528330.0
664.294983 1893201.0
665.272827 48.0
671.457947 584357.0
672.555908 35863.0
675.252808 3062771.0
676.276123 1149021.0
677.002197 57.0
679.320496 347430.0
688.130615 336462.0
689.338928 5507539.0
690.380371 939865.0
691.865601 127803.0
693.103333 441499.0
694.241089 177434.0
694.866699 3.0
706.645874 764079.0
707.298584 11425631.0
708.41217 3282238.0
709.281738 37425.0
710.297302 104548.0
711.575684 59794.0
714.353027 293763.0
720.310608 463766.0
723.610229 67559.0
724.423279 333180.0
725.338684 2697145.0
726.246155 477936.0
727.232544 407357.0
727.836182 23.0
731.005493 58569.0
733.947266 42640.0
734.489502 322546.0
735.21875 30.0
736.155151 161121.0
738.186523 1302348.0
738.97168 187994.0
739.817383 181407.0
740.513184 61.0
743.460449 177286.0
744.158691 26051.0
746.365784 668916.0
746.917114 45488.0
749.86853 33868.0
752.247192 1273569.0
753.092773 124216.0
753.863403 42270.0
754.550781 53958.0
756.299866 83498.0
758.105103 72039.0
760.394287 285768.0
761.139648 92506.0
762.440063 487254.0
763.821289 118871.0
764.401733 78746.0
765.879333 244224.0
766.875977 103968.0
768.550537 359217.0
769.536011 71507.0
770.24707 6843020.0
771.345947 1834188.0
772.112915 291081.0
772.859253 98762.0
773.393433 15544.0
774.196289 89552.0
775.369934 162814.0
776.830322 39987.0
778.437683 568287.0
779.430786 387544.0
780.564697 96591.0
782.339478 146674.0
786.388916 33301.0
788.550964 179046.0
789.33606 752627.0
790.289795 2323301.0
791.421265 491574.0
792.208252 468317.0
792.876465 10.0
793.950195 158696.0
795.489502 38698.0
796.091187 954908.0
797.200439 337367.0
798.289185 46495.0
800.432495 111840.0
801.090576 18.0
802.506714 113841.0
803.42688 382726.0
804.150146 305130.0
805.09314 72883.0
805.733887 25871.0
806.318115 161990.0
807.514771 70266.0
808.27356 21070504.0
809.333984 4046391.0
810.207275 259344.0
811.469727 27873.0
812.310425 187082.0
813.238647 70162.0
814.210083 462427.0
814.969604 5.0
818.325684 249639.0
819.179932 5.0
821.257446 2401369.0
822.402405 1322524.0
823.065796 26639.0
826.38385 1256031.0
827.219849 5.0
828.190063 2491409.0
829.269775 415142.0
832.262146 456122.0
833.509155 211714.0
834.274414 8.0
836.505859 107931.0
837.125854 4.0
837.99231 18698.0
839.326721 2462282.0
840.278259 8756806.0
841.229004 1659474.0
842.093811 260534.0
843.241211 234347.0
844.313904 2187139.0
845.152466 83303.0
846.27002 2781280.0
847.444214 1204369.0
848.088745 3.0
850.265015 922613.0
851.186401 116222.0
854.273743 1016497.0
855.291382 102364.0
858.455566 702571.0
860.296204 2520372.0
861.256592 530700.0
862.471863 1859168.0
863.435181 549532.0
864.379272 443001.0
865.002441 70558.0
866.333496 12614.0
868.264954 134340.0
871.557007 123565.0
872.289917 18706856.0
873.345642 2718281.0
874.043213 315833.0
876.373779 5434008.0
876.880249 19.0
877.403809 1670336.0
878.322937 10828502.0
879.327148 2115364.0
880.158447 114122.0
886.277527 2620326.0
887.16687 545701.0
887.893188 5.0
890.246277 55866120.0
891.272888 13506386.0
892.020142 75.0
893.624634 44855.0
894.326416 18938176.0
895.376404 5114120.0
896.202576 979881.0
897.012695 226445.0
904.195679 46132128.0
905.224548 12148538.0
906.084473 13.0
906.811646 12834.0
908.183472 17888056.0
909.235107 4328052.0
910.25885 56715.0
912.229492 168909.0
913.382202 64191.0
921.45813 892847.0
922.178101 109387080.0
923.155762 23455760.0
924.007812 68.0
940.099915 1264261.0
940.88324 2.0
END IONS
BEGIN IONS
PEPMASS=301.035
CHARGE=-1
TITLE=CCMSLIB00004719957
SPECTRUMID=CCMSLIB00004719957
COMPOUND_NAME=Quercetin
ADDUCT=[M-H]1-
ION_MODE=negative
SMILES=O=c1c(O)c(-c2ccc(O)c(O)c2)oc2cc(O)cc(O)c12
SCANS=432740
MS_MASS_ANALYZER=qtof
63.024101 3.072105
65.003403 5.189949
83.014099 4.471489
93.032799 0.953066
93.036598 0.592102
107.013496 15.179542
107.1036 0.351541
108.016998 0.292919
108.994301 0.215248
109.023598 0.214072
109.027702 0.694502
121.029099 20.18523
121.123497 0.246714
121.131302 0.267302
125.0224 0.620948
125.029198 0.295649
147.0401 0.315746
149.024002 2.863433
151.003296 100.0
151.088593 0.222626
151.110992 1.686851
151.119003 0.26531
151.139496 0.390575
151.149399 0.756452
151.162003 0.438873
151.173798 0.28771
151.184692 0.391607
151.194794 0.25026
151.204803 0.302258
151.2117 0.222722
151.221405 0.302802
151.229599 0.22294
151.250397 0.231774
151.258606 0.334393
151.299194 0.422162
151.336197 0.253238
151.348694 0.216104
151.387207 0.233468
151.468307 0.211621
152.009506 1.449973
159.044907 0.386538
161.023499 0.500701
163.001404 0.892196
163.008896 0.237435
163.023407 0.240655
163.035202 1.08043
164.010498 1.760106
165.015396 0.274029
175.033401 0.41009
175.042099 0.281141
178.998199 37.407764
179.090607 0.213988
179.114594 0.602676
179.148102 0.44685
179.1819 0.266296
179.194794 0.288172
180.003204 0.439098
183.0392 0.212221
185.056 0.328136
187.040604 0.712496
192.000107 0.348524
192.007401 0.365503
193.013107 2.025575
201.053604 0.799218
203.029602 0.353364
205.049301 0.790558
211.039001 1.106895
215.035797 0.359904
227.029404 0.376821
227.037201 0.333513
229.048203 2.658434
229.054092 0.702433
230.016205 0.213626
231.028 0.529621
239.034698 0.290006
240.039001 0.268124
243.025497 0.34466
245.045502 2.628935
255.026993 0.867073
256.036499 0.459939
257.043396 2.00519
273.039886 7.310793
284.035187 0.263512
299.018005 0.908785
301.03479 37.438416
301.154694 0.41972
301.183807 0.92422
301.222809 0.247931
301.236115 0.468495
301.273712 0.223195
301.291504 0.243221
301.317291 0.258037
301.339508 0.301822
301.487488 0.218436
302.037598 0.650005
END IONS